n=10;
m=12;
Ha=[[0.300000,0.300000,0.300000,0.300000,0.300000,0.300000,0.300000,0.300000,0.300000,0.300000],[0.300000,0.050000,0.050000,0.050000,0.860000,0.860000,0.860000,0.860000,0.860000,0.300000],[0.300000,0.050000,0.050000,0.050000,0.860000,0.860000,0.860000,0.860000,0.860000,0.300000],[0.300000,0.050000,0.050000,0.050000,0.860000,0.860000,0.860000,0.860000,0.860000,0.300000],[0.300000,0.050000,0.050000,0.050000,0.860000,0.860000,0.860000,0.860000,0.860000,0.300000],[0.300000,0.050000,0.050000,0.050000,0.860000,0.860000,0.860000,0.860000,0.860000,0.300000],[0.300000,0.050000,0.050000,0.050000,0.050000,0.050000,0.050000,0.050000,0.300000,0.300000],[0.300000,0.050000,0.050000,1.300000,1.300000,1.300000,0.050000,0.050000,0.300000,0.300000],[0.300000,0.050000,0.050000,2.000000,2.000000,2.000000,2.000000,2.000000,0.300000,0.300000],[0.300000,0.050000,0.050000,2.000000,2.000000,2.000000,2.000000,2.000000,0.300000,0.300000],[0.300000,0.050000,0.050000,2.000000,2.000000,2.000000,2.000000,2.000000,0.300000,0.300000],[0.300000,0.050000,0.050000,1.300000,1.300000,1.300000,0.050000,0.050000,0.300000,0.300000]];
Ca=[[0.670000,0.670000,0.670000,0.670000,0.670000,0.670000,0.670000,0.670000,0.670000,0.670000],[0.670000,0.750000,0.750000,0.750000,0.560000,0.560000,0.560000,0.560000,0.560000,0.670000],[0.670000,0.750000,0.750000,0.750000,0.560000,0.560000,0.560000,0.560000,0.560000,0.670000],[0.670000,0.750000,0.750000,0.750000,0.560000,0.560000,0.560000,0.560000,0.560000,0.670000],[0.670000,0.750000,0.750000,0.750000,0.560000,0.560000,0.560000,0.560000,0.560000,0.670000],[0.670000,0.750000,0.750000,0.750000,0.560000,0.560000,0.560000,0.560000,0.560000,0.670000],[0.670000,0.750000,0.750000,0.750000,0.750000,0.750000,0.750000,0.750000,0.670000,0.670000],[0.670000,0.750000,0.750000,0.500000,0.500000,0.500000,0.750000,0.750000,0.670000,0.670000],[0.670000,0.750000,0.750000,0.430000,0.430000,0.430000,0.430000,0.430000,0.670000,0.670000],[0.670000,0.750000,0.750000,0.430000,0.430000,0.430000,0.430000,0.430000,0.670000,0.670000],[0.670000,0.750000,0.750000,0.430000,0.430000,0.430000,0.430000,0.430000,0.670000,0.670000],[0.670000,0.750000,0.750000,0.500000,0.500000,0.500000,0.750000,0.750000,0.670000,0.670000]];
Hp=[[0.000000,0.000000,0.000000,0.000000,0.000000,0.000000,0.000000,0.000000,0.000000,0.000000],[0.000000,0.200000,0.200000,0.200000,0.200000,0.200000,0.200000,0.200000,0.200000,0.000000],[0.000000,0.200000,0.200000,0.200000,0.200000,0.200000,0.200000,0.200000,0.200000,0.000000],[0.000000,0.200000,0.200000,0.200000,0.200000,0.200000,0.200000,0.200000,0.200000,0.000000],[0.000000,0.200000,0.200000,0.200000,0.200000,0.200000,0.200000,0.200000,0.200000,0.000000],[0.000000,0.200000,0.200000,0.200000,0.200000,0.200000,0.200000,0.200000,0.200000,0.000000],[0.000000,0.200000,0.200000,0.200000,0.200000,0.200000,0.200000,0.200000,0.000000,0.000000],[0.000000,0.200000,0.200000,8.000000,8.000000,8.000000,0.200000,0.200000,0.000000,0.000000],[0.000000,0.200000,0.200000,1.000000,1.000000,1.000000,1.000000,1.000000,0.000000,0.000000],[0.000000,0.200000,0.200000,1.000000,1.000000,1.000000,1.000000,1.000000,0.000000,0.000000],[0.000000,0.200000,0.200000,1.000000,1.000000,1.000000,1.000000,1.000000,0.000000,0.000000],[0.000000,0.200000,0.200000,8.000000,8.000000,8.000000,0.200000,0.200000,0.000000,0.000000]];
Cp=[[0.750000,0.750000,0.750000,0.750000,0.750000,0.750000,0.750000,0.750000,0.750000,0.750000],[0.750000,0.630000,0.630000,0.630000,0.630000,0.630000,0.630000,0.630000,0.630000,0.750000],[0.750000,0.630000,0.630000,0.630000,0.630000,0.630000,0.630000,0.630000,0.630000,0.750000],[0.750000,0.630000,0.630000,0.630000,0.630000,0.630000,0.630000,0.630000,0.630000,0.750000],[0.750000,0.630000,0.630000,0.630000,0.630000,0.630000,0.630000,0.630000,0.630000,0.750000],[0.750000,0.630000,0.630000,0.630000,0.630000,0.630000,0.630000,0.630000,0.630000,0.750000],[0.750000,0.630000,0.630000,0.630000,0.630000,0.630000,0.630000,0.630000,0.750000,0.750000],[0.750000,0.630000,0.630000,0.125000,0.125000,0.125000,0.630000,0.630000,0.750000,0.750000],[0.750000,0.630000,0.630000,0.500000,0.500000,0.500000,0.500000,0.500000,0.750000,0.750000],[0.750000,0.630000,0.630000,0.500000,0.500000,0.500000,0.500000,0.500000,0.750000,0.750000],[0.750000,0.630000,0.630000,0.500000,0.500000,0.500000,0.500000,0.500000,0.750000,0.750000],[0.750000,0.630000,0.630000,0.125000,0.125000,0.125000,0.630000,0.630000,0.750000,0.750000]];
